SECTION Graph
Nodes 272
Edges 545
E 1 9 21
E 1 24 7
E 2 3 14
E 2 10 21
E 3 4 1
E 3 11 21
E 4 12 21
E 5 6 1
E 5 107 21
E 6 7 14
E 6 108 21
E 7 8 1
E 7 109 21
E 8 110 21
E 8 111 7
E 9 10 1
E 9 239 7
E 9 241 2
E 10 11 14
E 10 242 2
E 11 12 1
E 11 243 2
E 12 244 2
E 13 14 1
E 13 228 7
E 13 230 2
E 13 241 19
E 14 15 14
E 14 232 2
E 14 242 19
E 15 16 1
E 15 238 2
E 15 243 19
E 16 240 2
E 16 244 19
E 17 18 1
E 17 206 7
E 17 230 19
E 18 19 14
E 18 232 19
E 19 20 1
E 19 238 19
E 20 240 19
E 21 22 1
E 21 40 7
E 21 235 9
E 22 23 14
E 22 236 9
E 23 24 1
E 23 237 21
E 24 239 21
E 25 26 1
E 25 44 7
E 25 211 19
E 25 229 2
E 26 27 14
E 26 213 19
E 26 231 2
E 27 28 1
E 27 227 19
E 27 237 2
E 28 228 19
E 28 239 2
E 28 241 7
E 29 30 1
E 29 48 7
E 29 189 19
E 29 211 2
E 30 31 14
E 30 192 19
E 30 213 2
E 31 32 1
E 31 204 19
E 31 227 2
E 32 206 19
E 32 228 2
E 32 230 7
E 33 34 1
E 33 52 7
E 33 189 2
E 34 35 14
E 34 192 2
E 35 36 1
E 35 204 2
E 36 206 2
E 37 38 1
E 37 221 9
E 37 224 7
E 38 39 14
E 38 223 9
E 39 40 1
E 39 233 9
E 40 234 9
E 41 42 1
E 41 186 19
E 41 194 14
E 41 209 2
E 42 43 14
E 42 187 19
E 42 210 2
E 43 44 1
E 43 201 19
E 43 225 2
E 44 202 19
E 44 226 2
E 45 46 1
E 45 166 19
E 45 171 14
E 45 186 2
E 46 47 14
E 46 168 19
E 46 187 2
E 47 48 1
E 47 180 19
E 47 201 2
E 48 181 19
E 48 202 2
E 49 50 1
E 49 144 30
E 49 166 2
E 50 51 14
E 50 168 2
E 51 52 1
E 51 180 2
E 52 181 2
E 53 54 1
E 53 207 5
E 54 208 5
E 54 219 6
E 55 56 1
E 55 220 6
E 55 222 5
E 56 224 5
E 57 58 2
E 57 193 12
E 57 198 6
E 57 212 7
E 58 195 12
E 58 214 6
E 58 216 7
E 59 60 1
E 59 174 7
E 59 175 7
E 59 182 2
E 60 61 14
E 60 176 7
E 60 183 2
E 61 62 1
E 61 188 7
E 61 197 2
E 62 190 7
E 62 199 2
E 62 203 7
E 63 64 1
E 63 82 7
E 63 149 19
E 63 162 2
E 64 65 14
E 64 150 19
E 64 163 2
E 65 66 1
E 65 157 19
E 65 177 2
E 66 158 19
E 66 178 2
E 66 191 14
E 67 68 1
E 67 86 7
E 67 137 19
E 67 149 2
E 68 69 14
E 68 138 19
E 68 150 2
E 69 70 1
E 69 145 19
E 69 157 2
E 70 146 19
E 70 158 2
E 70 169 14
E 71 72 1
E 71 126 7
E 71 134 2
E 72 73 14
E 72 136 2
E 73 74 1
E 73 142 2
E 74 144 2
E 75 76 1
E 75 94 7
E 75 159 2
E 76 77 14
E 76 160 2
E 77 78 1
E 77 172 2
E 78 174 2
E 78 182 7
E 79 80 1
E 79 133 19
E 79 140 7
E 79 147 2
E 80 81 14
E 80 135 19
E 80 148 2
E 81 82 1
E 81 141 19
E 81 155 2
E 82 143 19
E 82 156 2
E 83 84 1
E 83 121 19
E 83 125 7
E 83 133 2
E 84 85 14
E 84 122 19
E 84 135 2
E 85 86 1
E 85 129 19
E 85 141 2
E 86 130 19
E 86 143 2
E 87 88 1
E 87 116 2
E 88 89 14
E 88 118 2
E 89 90 1
E 89 124 2
E 90 126 2
E 91 92 1
E 91 95 21
E 92 93 14
E 92 96 21
E 93 94 1
E 93 97 21
E 94 98 21
E 95 96 1
E 95 131 2
E 96 97 14
E 96 132 2
E 97 98 1
E 97 139 2
E 98 140 2
E 98 147 7
E 99 100 1
E 99 110 7
E 99 115 2
E 99 131 19
E 100 101 14
E 100 117 2
E 100 132 19
E 101 102 1
E 101 123 2
E 101 139 19
E 102 125 2
E 102 133 7
E 102 140 19
E 103 104 1
E 103 111 2
E 104 105 14
E 104 112 2
E 105 106 1
E 105 113 2
E 106 114 2
E 106 119 7
E 107 108 1
E 108 109 14
E 109 110 1
E 111 112 1
E 111 115 19
E 112 113 14
E 112 117 19
E 113 114 1
E 113 123 19
E 114 121 7
E 114 125 19
E 115 117 1
E 116 118 1
E 116 119 2
E 117 123 14
E 118 120 2
E 118 124 14
E 119 120 1
E 119 121 2
E 120 122 2
E 120 127 14
E 121 122 1
E 122 129 14
E 123 125 1
E 124 126 1
E 124 127 2
E 126 128 2
E 127 128 1
E 127 129 2
E 128 130 2
E 128 134 7
E 129 130 1
E 130 137 7
E 131 132 1
E 132 139 14
E 133 135 1
E 134 136 1
E 134 137 2
E 135 141 14
E 136 138 2
E 136 142 14
E 137 138 1
E 138 145 14
E 139 140 1
E 141 143 1
E 142 144 1
E 142 145 2
E 143 149 7
E 144 146 2
E 145 146 1
E 146 151 7
E 147 148 1
E 147 159 19
E 148 155 14
E 148 160 19
E 149 150 1
E 150 157 14
E 151 152 1
E 152 153 6
E 153 154 2
E 153 169 19
E 154 161 7
E 154 171 19
E 155 156 1
E 155 172 19
E 156 162 7
E 156 167 12
E 157 158 1
E 158 164 7
E 159 160 1
E 160 172 14
E 161 166 7
E 162 163 1
E 162 175 12
E 163 176 12
E 163 177 14
E 164 165 1
E 165 170 6
E 166 168 1
E 167 174 7
E 167 175 7
E 168 180 14
E 169 170 2
E 169 171 2
E 170 173 2
E 170 191 19
E 171 173 2
E 172 174 1
E 173 179 7
E 173 194 19
E 175 176 1
E 176 188 14
E 177 178 1
E 177 188 12
E 178 184 7
E 178 190 12
E 179 186 7
E 180 181 1
E 181 189 7
E 182 183 1
E 183 197 14
E 184 185 1
E 184 196 12
E 185 193 6
E 185 198 12
E 186 187 1
E 187 201 14
E 188 190 1
E 189 192 1
E 190 196 7
E 191 193 2
E 191 194 2
E 192 204 14
E 193 195 2
E 194 195 2
E 195 200 7
E 196 198 1
E 196 203 7
E 197 199 1
E 198 205 7
E 199 207 7
E 200 209 7
E 200 217 12
E 201 202 1
E 202 211 7
E 203 205 1
E 203 207 2
E 204 206 1
E 205 208 2
E 205 212 6
E 207 208 1
E 208 215 6
E 209 210 1
E 209 221 12
E 210 223 12
E 210 225 14
E 211 213 1
E 212 215 2
E 212 216 2
E 213 227 14
E 214 217 1
E 214 222 9
E 215 218 2
E 215 219 5
E 216 218 2
E 217 221 7
E 217 224 9
E 218 220 5
E 218 222 6
E 219 220 2
E 221 223 1
E 222 224 1
E 223 233 14
E 225 226 1
E 225 233 12
E 226 229 7
E 226 234 12
E 227 228 1
E 229 231 1
E 229 235 12
E 230 232 1
E 231 236 12
E 231 237 14
E 232 238 14
E 233 234 1
E 234 235 7
E 235 236 1
E 237 239 1
E 238 240 1
E 241 242 1
E 242 243 14
E 243 244 1
E 1 245 100000
E 2 245 100000
E 3 245 100000
E 4 245 100000
E 5 246 100000
E 6 246 100000
E 7 246 100000
E 8 246 100000
E 9 247 100000
E 10 247 100000
E 11 247 100000
E 12 247 100000
E 13 248 100000
E 14 248 100000
E 15 248 100000
E 16 248 100000
E 17 249 100000
E 18 249 100000
E 19 249 100000
E 20 249 100000
E 21 250 100000
E 22 250 100000
E 23 250 100000
E 24 250 100000
E 25 251 100000
E 26 251 100000
E 27 251 100000
E 28 251 100000
E 29 252 100000
E 30 252 100000
E 31 252 100000
E 32 252 100000
E 33 253 100000
E 34 253 100000
E 35 253 100000
E 36 253 100000
E 37 254 100000
E 38 254 100000
E 39 254 100000
E 40 254 100000
E 41 255 100000
E 42 255 100000
E 43 255 100000
E 44 255 100000
E 45 256 100000
E 46 256 100000
E 47 256 100000
E 48 256 100000
E 49 257 100000
E 50 257 100000
E 51 257 100000
E 52 257 100000
E 53 258 100000
E 54 258 100000
E 55 258 100000
E 56 258 100000
E 57 259 100000
E 58 259 100000
E 59 260 100000
E 60 260 100000
E 61 260 100000
E 62 260 100000
E 63 261 100000
E 64 261 100000
E 65 261 100000
E 66 261 100000
E 67 262 100000
E 68 262 100000
E 69 262 100000
E 70 262 100000
E 71 263 100000
E 72 263 100000
E 73 263 100000
E 74 263 100000
E 75 264 100000
E 76 264 100000
E 77 264 100000
E 78 264 100000
E 79 265 100000
E 80 265 100000
E 81 265 100000
E 82 265 100000
E 83 266 100000
E 84 266 100000
E 85 266 100000
E 86 266 100000
E 87 267 100000
E 88 267 100000
E 89 267 100000
E 90 267 100000
E 91 268 100000
E 92 268 100000
E 93 268 100000
E 94 268 100000
E 95 269 100000
E 96 269 100000
E 97 269 100000
E 98 269 100000
E 99 270 100000
E 100 270 100000
E 101 270 100000
E 102 270 100000
E 103 271 100000
E 104 271 100000
E 105 271 100000
E 106 271 100000
E 107 272 100000
E 108 272 100000
E 109 272 100000
E 110 272 100000
END

SECTION Terminals
Terminals 28
T 245
T 246
T 247
T 248
T 249
T 250
T 251
T 252
T 253
T 254
T 255
T 256
T 257
T 258
T 259
T 260
T 261
T 262
T 263
T 264
T 265
T 266
T 267
T 268
T 269
T 270
T 271
T 272
END

EOF
